presolving:
(round 1, fast)       0 del vars, 0 del conss, 0 add conss, 13280 chg bounds, 0 chg sides, 26560 chg coeffs, 0 upgd conss, 0 impls, 0 clqs
   (0.2s) running MILP presolver
   (0.2s) MILP presolver found nothing
(round 2, exhaustive) 0 del vars, 0 del conss, 0 add conss, 13280 chg bounds, 0 chg sides, 26560 chg coeffs, 26560 upgd conss, 0 impls, 0 clqs
   (1.0s) probing: 51/1394 (3.7%) - 0 fixings, 0 aggregations, 0 implications, 0 bound changes
   (1.0s) probing aborted: 50/50 successive totally useless probings
   (1.0s) symmetry computation started: requiring (bin +, int -, cont +), (fixed: bin -, int +, cont -)
   (1.1s) no symmetry present
presolving (3 rounds: 3 fast, 2 medium, 2 exhaustive):
 0 deleted vars, 0 deleted constraints, 0 added constraints, 13280 tightened bounds, 0 added holes, 0 changed sides, 26560 changed coefficients
 26560 implications, 0 cliques
presolved problem has 14674 variables (1394 bin, 0 int, 0 impl, 13280 cont) and 28548 constraints
  26560 constraints of type <varbound>
   1988 constraints of type <linear>
Presolving Time: 1.02

 time | node  | left  |LP iter|LP it/n|mem/heur|mdpt |vars |cons |rows |cuts |sepa|confs|strbr|  dualbound   | primalbound  |  gap   | compl. 
p 1.2s|     1 |     0 |   113 |     - |   locks|   0 |  14k|  28k|  28k|   0 |  0 |   0 |   0 | 0.000000e+00 | 2.057158e+07 |    Inf | unknown
i 1.2s|     1 |     0 |   113 |     - |  oneopt|   0 |  14k|  28k|  28k|   0 |  0 |   0 |   0 | 0.000000e+00 | 1.025739e+06 |    Inf | unknown
  1.2s|     1 |     0 |   287 |     - |   192M |   0 |  14k|  28k|  28k|   0 |  0 |   0 |   0 | 7.111905e+05 | 1.025739e+06 |  44.23%| unknown
  1.3s|     1 |     0 |   307 |     - |   199M |   0 |  14k|  28k|  28k|  15 |  1 |   1 |   0 | 7.381266e+05 | 1.025739e+06 |  38.97%| unknown
  1.4s|     1 |     0 |   319 |     - |   202M |   0 |  14k|  28k|  28k|  22 |  2 |   2 |   0 | 7.393156e+05 | 1.025739e+06 |  38.74%| unknown
  1.5s|     1 |     0 |   328 |     - |   205M |   0 |  14k|  28k|  28k|  28 |  3 |   3 |   0 | 7.458239e+05 | 1.025739e+06 |  37.53%| unknown
  1.6s|     1 |     0 |   359 |     - |   209M |   0 |  14k|  28k|  28k|  42 |  4 |   4 |   0 | 7.532643e+05 | 1.025739e+06 |  36.17%| unknown
  1.7s|     1 |     0 |   376 |     - |   214M |   0 |  14k|  28k|  28k|  52 |  5 |   5 |   0 | 7.643903e+05 | 1.025739e+06 |  34.19%| unknown
  1.7s|     1 |     0 |   388 |     - |   218M |   0 |  14k|  28k|  28k|  61 |  6 |   6 |   0 | 7.728652e+05 | 1.025739e+06 |  32.72%| unknown
  1.8s|     1 |     0 |   435 |     - |   221M |   0 |  14k|  28k|  28k|  80 |  7 |   7 |   0 | 8.075293e+05 | 1.025739e+06 |  27.02%| unknown
  1.9s|     1 |     0 |   503 |     - |   224M |   0 |  14k|  28k|  28k|  95 |  8 |   8 |   0 | 8.473003e+05 | 1.025739e+06 |  21.06%| unknown
  2.0s|     1 |     0 |   583 |     - |   228M |   0 |  14k|  28k|  28k| 111 |  9 |   9 |   0 | 8.783701e+05 | 1.025739e+06 |  16.78%| unknown
  2.1s|     1 |     0 |   634 |     - |   233M |   0 |  14k|  28k|  28k| 121 | 10 |  10 |   0 | 8.943752e+05 | 1.025739e+06 |  14.69%| unknown
  2.2s|     1 |     0 |   659 |     - |   236M |   0 |  14k|  28k|  28k| 129 | 11 |  11 |   0 | 8.998076e+05 | 1.025739e+06 |  14.00%| unknown
  2.3s|     1 |     0 |   671 |     - |   239M |   0 |  14k|  28k|  28k| 135 | 12 |  12 |   0 | 9.019018e+05 | 1.025739e+06 |  13.73%| unknown
 time | node  | left  |LP iter|LP it/n|mem/heur|mdpt |vars |cons |rows |cuts |sepa|confs|strbr|  dualbound   | primalbound  |  gap   | compl. 
  2.3s|     1 |     0 |   707 |     - |   244M |   0 |  14k|  28k|  28k| 145 | 13 |  13 |   0 | 9.097812e+05 | 1.025739e+06 |  12.75%| unknown
  2.4s|     1 |     0 |   743 |     - |   247M |   0 |  14k|  28k|  28k| 153 | 14 |  14 |   0 | 9.197458e+05 | 1.025739e+06 |  11.52%| unknown
  2.5s|     1 |     0 |   794 |     - |   250M |   0 |  14k|  28k|  28k| 163 | 15 |  14 |   0 | 9.266516e+05 | 1.025739e+06 |  10.69%| unknown
  2.6s|     1 |     0 |   808 |     - |   253M |   0 |  14k|  28k|  28k| 173 | 16 |  15 |   0 | 9.279412e+05 | 1.025739e+06 |  10.54%| unknown
  2.7s|     1 |     0 |   847 |     - |   256M |   0 |  14k|  28k|  28k| 180 | 17 |  15 |   0 | 9.298776e+05 | 1.025739e+06 |  10.31%| unknown
  2.7s|     1 |     0 |   876 |     - |   259M |   0 |  14k|  28k|  28k| 185 | 18 |  15 |   0 | 9.323900e+05 | 1.025739e+06 |  10.01%| unknown
  2.8s|     1 |     0 |   884 |     - |   263M |   0 |  14k|  28k|  28k| 189 | 19 |  15 |   0 | 9.327592e+05 | 1.025739e+06 |   9.97%| unknown
  2.9s|     1 |     0 |   896 |     - |   265M |   0 |  14k|  28k|  28k| 193 | 20 |  15 |   0 | 9.332728e+05 | 1.025739e+06 |   9.91%| unknown
  3.0s|     1 |     0 |   939 |     - |   267M |   0 |  14k|  28k|  28k| 197 | 21 |  16 |   0 | 9.345406e+05 | 1.025739e+06 |   9.76%| unknown
  3.0s|     1 |     0 |   971 |     - |   267M |   0 |  14k|  28k|  28k| 203 | 22 |  17 |   0 | 9.365459e+05 | 1.025739e+06 |   9.52%| unknown
  3.1s|     1 |     0 |   986 |     - |   268M |   0 |  14k|  28k|  28k| 207 | 23 |  17 |   0 | 9.372237e+05 | 1.025739e+06 |   9.44%| unknown
  3.2s|     1 |     0 |  1007 |     - |   269M |   0 |  14k|  28k|  28k| 212 | 24 |  18 |   0 | 9.384013e+05 | 1.025739e+06 |   9.31%| unknown
  3.2s|     1 |     0 |  1019 |     - |   269M |   0 |  14k|  28k|  28k| 216 | 25 |  18 |   0 | 9.388155e+05 | 1.025739e+06 |   9.26%| unknown
  3.3s|     1 |     0 |  1033 |     - |   269M |   0 |  14k|  28k|  28k| 220 | 26 |  18 |   0 | 9.391933e+05 | 1.025739e+06 |   9.21%| unknown
  3.4s|     1 |     0 |  1048 |     - |   270M |   0 |  14k|  28k|  28k| 222 | 27 |  19 |   0 | 9.395968e+05 | 1.025739e+06 |   9.17%| unknown
 time | node  | left  |LP iter|LP it/n|mem/heur|mdpt |vars |cons |rows |cuts |sepa|confs|strbr|  dualbound   | primalbound  |  gap   | compl. 
  3.4s|     1 |     0 |  1073 |     - |   270M |   0 |  14k|  28k|  28k| 228 | 28 |  19 |   0 | 9.412996e+05 | 1.025739e+06 |   8.97%| unknown
  3.5s|     1 |     0 |  1103 |     - |   272M |   0 |  14k|  28k|  28k| 232 | 29 |  19 |   0 | 9.431421e+05 | 1.025739e+06 |   8.76%| unknown
  3.6s|     1 |     0 |  1128 |     - |   273M |   0 |  14k|  28k|  28k| 237 | 30 |  19 |   0 | 9.436624e+05 | 1.025739e+06 |   8.70%| unknown
  3.7s|     1 |     0 |  1154 |     - |   273M |   0 |  14k|  28k|  28k| 240 | 31 |  19 |   0 | 9.440028e+05 | 1.025739e+06 |   8.66%| unknown
  3.7s|     1 |     0 |  1159 |     - |   273M |   0 |  14k|  28k|  28k| 242 | 32 |  19 |   0 | 9.441264e+05 | 1.025739e+06 |   8.64%| unknown
  3.8s|     1 |     0 |  1179 |     - |   273M |   0 |  14k|  28k|  28k| 249 | 33 |  20 |   0 | 9.448375e+05 | 1.025739e+06 |   8.56%| unknown
  3.8s|     1 |     0 |  1197 |     - |   273M |   0 |  14k|  28k|  28k| 252 | 34 |  20 |   0 | 9.451827e+05 | 1.025739e+06 |   8.52%| unknown
  3.9s|     1 |     0 |  1217 |     - |   273M |   0 |  14k|  28k|  28k| 254 | 35 |  20 |   0 | 9.455466e+05 | 1.025739e+06 |   8.48%| unknown
  4.0s|     1 |     0 |  1224 |     - |   274M |   0 |  14k|  28k|  28k| 255 | 36 |  21 |   0 | 9.456628e+05 | 1.025739e+06 |   8.47%| unknown
  4.0s|     1 |     0 |  1235 |     - |   275M |   0 |  14k|  28k|  28k| 258 | 37 |  22 |   0 | 9.471104e+05 | 1.025739e+06 |   8.30%| unknown
L 5.1s|     1 |     0 |  1783 |     - |    alns|   0 |  14k|  28k|  28k| 258 | 39 |  25 |   0 | 9.471104e+05 | 1.024154e+06 |   8.13%| unknown
  5.1s|     1 |     0 |  1783 |     - |   283M |   0 |  14k|  28k|  28k| 258 | 39 |  25 |   0 | 9.471104e+05 | 1.024154e+06 |   8.13%| unknown
  6.0s|     1 |     0 |  1784 |     - |   287M |   0 |  14k|  28k|  28k| 258 | 41 |  26 |  22 | 9.494300e+05 | 1.024154e+06 |   7.87%| unknown
  6.1s|     1 |     2 |  1784 |     - |   288M |   0 |  14k|  28k|  28k| 258 | 43 |  26 |  25 | 9.494300e+05 | 1.024154e+06 |   7.87%| unknown
o27.9s|    34 |    35 |  9845 | 264.3 |objpscos|  16 |  14k|  28k|  28k| 335 |  1 |  29 | 425 | 9.507374e+05 | 1.006023e+06 |   5.82%| unknown
 time | node  | left  |LP iter|LP it/n|mem/heur|mdpt |vars |cons |rows |cuts |sepa|confs|strbr|  dualbound   | primalbound  |  gap   | compl. 
 87.4s|   100 |    82 |142669 |1429.8 |   378M |  19 |  14k|  28k|  28k| 521 |  7 |  47 | 604 | 9.666831e+05 | 1.006023e+06 |   4.07%| unknown
*90.2s|   114 |    78 |142904 |1254.7 |strongbr|  21 |  14k|  28k|  28k| 521 |  2 |  50 | 657 | 9.666831e+05 | 1.000463e+06 |   3.49%|  11.44%
*95.9s|   136 |    60 |144116 |1059.2 |strongbr|  21 |  14k|  28k|  28k| 606 |  2 |  54 | 730 | 9.666831e+05 | 9.923820e+05 |   2.66%|  14.75%
*97.1s|   146 |    56 |144462 | 988.6 |strongbr|  21 |  14k|  28k|  28k| 629 | 12 |  54 | 735 | 9.666831e+05 | 9.913896e+05 |   2.56%|  16.31%
  103s|   200 |    76 |145836 | 727.2 |   406M |  21 |  14k|  28k|  28k| 676 |  2 |1334 | 802 | 9.674583e+05 | 9.913896e+05 |   2.47%|  28.02%
* 105s|   224 |    60 |146332 | 651.2 |strongbr|  21 |  14k|  28k|  28k| 709 |  4 |1340 | 818 | 9.679832e+05 | 9.877151e+05 |   2.04%|  33.14%
  111s|   300 |    46 |148613 | 493.3 |   428M |  21 |  14k|  28k|  28k| 783 |  4 |1352 | 853 | 9.744080e+05 | 9.877151e+05 |   1.37%|  65.00%

SCIP Status        : problem is solved [optimal solution found]
Solving Time (sec) : 114.22
Solving Nodes      : 364
Primal Bound       : +9.87715102248215e+05 (397 solutions)
Dual Bound         : +9.87715102248215e+05
Gap                : 0.00 %
Solve Status: optimal
Solve Time: 114.23 seconds
